0000000000000000
0000000000000000
0011000000000000
0011000000000000
0011000000000000
0011111111000000
0011111111000000
0000000011000000
0000000011000000
0000000011000000
0000000111000000
0000001110000000
0000001100000000
0000001100000000
0000001100000000
0000001100000000
